solution status: time limit reached
objective value:                         108303.52478
y#2                                                 1 	(obj:5700)
y#7                                                 1 	(obj:5700)
y#8                                                 1 	(obj:5700)
y#9                                                 1 	(obj:5700)
y#10                                                1 	(obj:5700)
y#14                                                1 	(obj:5700)
y#22                                                1 	(obj:5700)
y#26                                                1 	(obj:5700)
y#27                                                1 	(obj:5700)
y#30                                                1 	(obj:5700)
y#32                                                1 	(obj:5700)
y#33                                                1 	(obj:5700)
y#35                                                1 	(obj:5700)
y#41                                                1 	(obj:5700)
y#42                                                1 	(obj:5700)
y#46                                                1 	(obj:5700)
y#48                                                1 	(obj:5700)
y#52                                                1 	(obj:5700)
y#55                                                1 	(obj:5700)
x#1#27                                              1 	(obj:0.01717)
x#2#33                                              1 	(obj:0.00663)
x#3#14                                              1 	(obj:0.02669)
x#4#7                                               1 	(obj:0.02244)
x#5#42                                              1 	(obj:0.0068)
x#6#46                                              1 	(obj:0.00799)
x#7#8                                               1 	(obj:0.00952)
x#8#52                                              1 	(obj:0.00935)
x#9#55                                              1 	(obj:0.02771)
x#10#30                                             1 	(obj:0.02822)
x#11#35                                             1 	(obj:0.02142)
x#12#55                                             1 	(obj:0.02176)
x#13#27                                             1 	(obj:0.00612)
x#14#10                                             1 	(obj:0.00901)
x#15#27                                             1 	(obj:0.01003)
x#16#30                                             1 	(obj:0.02873)
x#17#35                                             1 	(obj:0.00935)
x#18#26                                             1 	(obj:0.02091)
x#19#30                                             1 	(obj:0.00612)
x#20#33                                             1 	(obj:0.01122)
x#21#9                                              1 	(obj:0.02074)
x#22#35                                             1 	(obj:0.02448)
x#23#48                                             1 	(obj:0.01173)
x#24#55                                             1 	(obj:0.01241)
x#25#2                                              1 	(obj:0.01955)
x#26#35                                             1 	(obj:0.03791)
x#27#33                                             1 	(obj:0.04386)
x#28#27                                             1 	(obj:0.01615)
x#29#42                                             1 	(obj:0.01581)
x#30#10                                             1 	(obj:0.0238)
x#31#32                                             1 	(obj:0.00799)
x#32#41                                             1 	(obj:0.02244)
x#33#32                                             1 	(obj:0.00493)
x#34#35                                             1 	(obj:0.04556)
x#35#52                                             1 	(obj:0.01836)
x#36#2                                              1 	(obj:0.00255)
x#37#22                                             1 	(obj:0.02771)
x#38#32                                             1 	(obj:0.00748)
x#39#7                                              1 	(obj:0.03247)
x#40#48                                             1 	(obj:0.01207)
x#41#7                                              1 	(obj:0.01275)
x#42#55                                             1 	(obj:0.03111)
x#43#33                                             1 	(obj:0.01564)
x#44#41                                             1 	(obj:0.01377)
x#45#9                                              1 	(obj:0.01445)
x#46#22                                             1 	(obj:0.02006)
x#47#42                                             1 	(obj:0.01479)
x#48#55                                             1 	(obj:0.01598)
x#49#2                                              1 	(obj:0.02499)
x#50#42                                             1 	(obj:0.01207)
x#51#55                                             1 	(obj:0.01547)
x#52#46                                             1 	(obj:0.01547)
x#53#10                                             1 	(obj:0.00969)
x#54#26                                             1 	(obj:0.02788)
x#55#35                                             1 	(obj:0.03757)
x#56#48                                             1 	(obj:0.01768)
x#57#14                                             1 	(obj:0.01989)
x#58#22                                             1 	(obj:0.02737)
x#59#33                                             1 	(obj:0.04488)
x#60#2                                              1 	(obj:0.017)
x#61#10                                             1 	(obj:0.02142)
x#62#55                                             1 	(obj:0.01989)
x#63#55                                             1 	(obj:0.01156)
x#64#26                                             1 	(obj:0.0085)
x#65#33                                             1 	(obj:0.02006)
x#66#48                                             1 	(obj:0.02448)
x#67#35                                             1 	(obj:0.04471)
x#68#30                                             1 	(obj:0.02363)
x#69#32                                             1 	(obj:0.00799)
x#70#46                                             1 	(obj:0.00833)
x#71#7                                              1 	(obj:0.00918)
x#72#30                                             1 	(obj:0.02295)
x#73#48                                             1 	(obj:0.01258)
x#74#7                                              1 	(obj:0.01241)
x#75#52                                             1 	(obj:0.01683)
x#76#42                                             1 	(obj:0.02278)
x#77#42                                             1 	(obj:0.02023)
x#78#26                                             1 	(obj:0.01734)
x#79#41                                             1 	(obj:0.00425)
x#80#27                                             1 	(obj:0.0085)
x#81#41                                             1 	(obj:0.01258)
x#82#35                                             1 	(obj:0.02363)
x#83#27                                             1 	(obj:0.01853)
x#84#33                                             1 	(obj:0.00935)
x#85#22                                             1 	(obj:0.01666)
x#86#52                                             1 	(obj:0.00867)
x#87#14                                             1 	(obj:0.02363)
x#88#27                                             1 	(obj:0.01326)
x#89#35                                             1 	(obj:0.01479)
x#90#32                                             1 	(obj:0.01513)
x#91#2                                              1 	(obj:0.00765)
x#92#35                                             1 	(obj:0.04114)
x#93#26                                             1 	(obj:0.0051)
x#94#22                                             1 	(obj:0.03264)
x#95#46                                             1 	(obj:0.01343)
x#96#22                                             1 	(obj:0.01003)
x#97#9                                              1 	(obj:0.0204)
x#98#10                                             1 	(obj:0.01241)
x#99#41                                             1 	(obj:0.00238)
x#100#8                                             1 	(obj:0.02329)
x#101#9                                             1 	(obj:0.01768)
x#102#52                                            1 	(obj:0.01343)
x#103#32                                            1 	(obj:0.0289)
x#104#2                                             1 	(obj:0.02482)
x#105#22                                            1 	(obj:0.02329)
x#106#22                                            1 	(obj:0.03791)
x#107#14                                            1 	(obj:0.02006)
x#108#10                                            1 	(obj:0.01462)
x#109#8                                             1 	(obj:0.00935)
x#110#9                                             1 	(obj:0.03145)
x#111#30                                            1 	(obj:0.02516)
x#112#27                                            1 	(obj:0.02482)
x#113#9                                             1 	(obj:0.01411)
x#114#42                                            1 	(obj:0.017)
x#115#27                                            1 	(obj:0.02397)
x#116#7                                             1 	(obj:0.01088)
x#117#52                                            1 	(obj:0.01564)
x#118#10                                            1 	(obj:0.00901)
x#119#10                                            1 	(obj:0.02363)
x#120#2                                             1 	(obj:0.00969)
x#121#41                                            1 	(obj:0.03383)
x#122#8                                             1 	(obj:0.0085)
x#123#42                                            1 	(obj:0.02312)
x#124#2                                             1 	(obj:0.02057)
x#125#2                                             1 	(obj:0.01241)
x#126#26                                            1 	(obj:0.00918)
x#127#46                                            1 	(obj:0.02635)
x#128#26                                            1 	(obj:0.0068)
x#129#7                                             1 	(obj:0.0119)
x#130#46                                            1 	(obj:0.02397)
x#131#42                                            1 	(obj:0.01003)
x#132#52                                            1 	(obj:0.03332)
x#133#26                                            1 	(obj:0.01887)
x#134#10                                            1 	(obj:0.00748)
x#135#26                                            1 	(obj:0.01428)
x#136#32                                            1 	(obj:0.01972)
x#137#14                                            1 	(obj:0.02125)
x#138#55                                            1 	(obj:0.01938)
x#139#46                                            1 	(obj:0.01241)
x#140#9                                             1 	(obj:0.0272)
x#141#32                                            1 	(obj:0.01394)
x#142#52                                            1 	(obj:0.02176)
x#143#46                                            1 	(obj:0.02006)
x#144#52                                            1 	(obj:0.0068)
x#145#41                                            1 	(obj:0.00799)
x#146#7                                             1 	(obj:0.01819)
x#147#42                                            1 	(obj:0.02023)
x#148#7                                             1 	(obj:0.00204)
x#149#41                                            1 	(obj:0.02754)
x#150#9                                             1 	(obj:0.02805)
x#151#33                                            1 	(obj:0.00714)
x#152#9                                             1 	(obj:0.03485)
x#153#33                                            1 	(obj:0.00374)
x#154#48                                            1 	(obj:0.01666)
x#155#32                                            1 	(obj:0.01479)
x#156#46                                            1 	(obj:0.02635)
x#157#55                                            1 	(obj:0.01326)
x#158#35                                            1 	(obj:0.00646)
x#159#2                                             1 	(obj:0.01003)
x#160#32                                            1 	(obj:0.01479)
x#161#41                                            1 	(obj:0.02023)
x#162#52                                            1 	(obj:0.02669)
x#163#33                                            1 	(obj:0.01224)
x#164#46                                            1 	(obj:0.01836)
x#165#2                                             1 	(obj:0.01768)
x#166#7                                             1 	(obj:0.02312)
x#167#42                                            1 	(obj:0.02091)
x#168#10                                            1 	(obj:0.00935)
x#169#26                                            1 	(obj:0.01088)
x#170#27                                            1 	(obj:0.01938)
x#171#26                                            1 	(obj:0.00918)
x#172#9                                             1 	(obj:0.0102)
x#173#41                                            1 	(obj:0.02074)
x#174#35                                            1 	(obj:0.01904)
x#175#10                                            1 	(obj:0.02108)
x#176#30                                            1 	(obj:0.01037)
x#177#32                                            1 	(obj:0.01411)
x#178#48                                            1 	(obj:0.00952)
x#179#46                                            1 	(obj:0.02924)
x#180#8                                             1 	(obj:0.00612)
x#181#30                                            1 	(obj:0.0119)
x#182#46                                            1 	(obj:0.01615)
x#183#48                                            1 	(obj:0.00799)
x#184#14                                            1 	(obj:0.01989)
x#185#14                                            1 	(obj:0.01207)
x#186#55                                            1 	(obj:0.01122)
x#187#8                                             1 	(obj:0.01751)
x#188#27                                            1 	(obj:0.00578)
x#189#48                                            1 	(obj:0.01343)
x#190#52                                            1 	(obj:0.02346)
x#191#41                                            1 	(obj:0.02006)
x#192#48                                            1 	(obj:0.0119)
x#193#48                                            1 	(obj:0.02023)
x#194#14                                            1 	(obj:0.02516)
x#195#7                                             1 	(obj:0.01428)
x#196#9                                             1 	(obj:0.01666)
x#197#52                                            1 	(obj:0.0221)
x#198#10                                            1 	(obj:0.00918)
x#199#7                                             1 	(obj:0.02686)
x#200#33                                            1 	(obj:0.03383)
